NAME: random-78-23895
TYPE: TSP
COMMENT: size=78 seed=23895
DIMENSION: 158
EDGE_WEIGHT_TYPE: EUC_2D
NODE_COORD_SECTION
+0 265 334
-0 265 334
+1 40 336
-1 652 823
+2 628 457
-2 339 758
+3 155 168
-3 146 106
+4 726 54
-4 633 481
+5 360 985
-5 324 411
+6 507 305
-6 146 435
+7 140 987
-7 271 106
+8 903 267
-8 514 114
+9 153 477
-9 245 132
+10 871 174
-10 986 73
+11 579 583
-11 536 865
+12 778 599
-12 90 430
+13 53 384
-13 12 784
+14 605 917
-14 275 976
+15 638 485
-15 963 399
+16 870 894
-16 142 464
+17 98 21
-17 2 182
+18 185 390
-18 449 771
+19 237 908
-19 563 367
+20 265 365
-20 742 245
+21 53 351
-21 951 129
+22 991 606
-22 176 692
+23 586 582
-23 812 112
+24 458 386
-24 565 405
+25 209 355
-25 831 193
+26 184 37
-26 484 832
+27 940 663
-27 339 385
+28 378 877
-28 615 70
+29 491 404
-29 541 688
+30 122 548
-30 693 507
+31 151 593
-31 218 746
+32 36 201
-32 572 415
+33 366 380
-33 772 987
+34 198 565
-34 135 760
+35 350 382
-35 527 635
+36 408 801
-36 764 499
+37 297 939
-37 4 355
+38 908 374
-38 14 293
+39 186 233
-39 84 487
+40 551 422
-40 241 318
+41 344 515
-41 323 109
+42 490 742
-42 572 816
+43 191 385
-43 774 387
+44 488 789
-44 274 852
+45 478 86
-45 577 891
+46 628 54
-46 934 529
+47 113 110
-47 660 777
+48 963 780
-48 555 815
+49 986 852
-49 146 258
+50 819 12
-50 321 585
+51 713 714
-51 818 611
+52 18 544
-52 275 150
+53 817 211
-53 653 145
+54 109 761
-54 314 343
+55 188 892
-55 588 141
+56 56 4
-56 992 86
+57 724 801
-57 10 98
+58 71 758
-58 358 75
+59 215 346
-59 767 96
+60 839 196
-60 588 592
+61 810 352
-61 189 170
+62 800 876
-62 322 423
+63 247 102
-63 623 148
+64 409 731
-64 357 588
+65 472 378
-65 482 509
+66 470 764
-66 807 706
+67 23 145
-67 818 148
+68 195 616
-68 47 126
+69 699 770
-69 432 176
+70 322 50
-70 629 697
+71 423 206
-71 240 264
+72 743 383
-72 984 559
+73 853 470
-73 158 349
+74 261 788
-74 718 343
+75 943 303
-75 144 225
+76 844 162
-76 822 876
+77 186 228
-77 738 598
+78 470 817
-78 891 411
PRECEDENCE_SECTION
+0 -0
+1 -1
+2 -2
+3 -3
+4 -4
+5 -5
+6 -6
+7 -7
+8 -8
+9 -9
+10 -10
+11 -11
+12 -12
+13 -13
+14 -14
+15 -15
+16 -16
+17 -17
+18 -18
+19 -19
+20 -20
+21 -21
+22 -22
+23 -23
+24 -24
+25 -25
+26 -26
+27 -27
+28 -28
+29 -29
+30 -30
+31 -31
+32 -32
+33 -33
+34 -34
+35 -35
+36 -36
+37 -37
+38 -38
+39 -39
+40 -40
+41 -41
+42 -42
+43 -43
+44 -44
+45 -45
+46 -46
+47 -47
+48 -48
+49 -49
+50 -50
+51 -51
+52 -52
+53 -53
+54 -54
+55 -55
+56 -56
+57 -57
+58 -58
+59 -59
+60 -60
+61 -61
+62 -62
+63 -63
+64 -64
+65 -65
+66 -66
+67 -67
+68 -68
+69 -69
+70 -70
+71 -71
+72 -72
+73 -73
+74 -74
+75 -75
+76 -76
+77 -77
+78 -78
EOF
